001001011110100111010000011111111011000010111011100110110110101101111011111000110101110000101010100100111111111001010011001011010010101001000000100011011010011000101110100000101010001100001011100011011101001100000001010100101101110001111110111110110001000101101001001101100000000111010100001001011011111100010011111010000001000110100110100100010111001110101011001010110110001111011001111100110110000010110010011100011111011100000110101000110000110110010001100101010101110110111111110100000011110001011001010010000101101111110111011101100010111010110000011111010001101000000011